\ENCODING=ISO-8859-1
\Problem name: IloCplex

Minimize
 obj1: 302640 X_(V0)(0)(1)#0 + 909744 X_(V0)(0)(2)#1 + 592362 X_(V0)(0)(3)#2
       + 959254 X_(V0)(0)(4)#3 + 302640 X_(V1)(0)(1)#4 + 909744 X_(V1)(0)(2)#5
       + 592362 X_(V1)(0)(3)#6 + 959254 X_(V1)(0)(4)#7 + 302162 X_(V0)(1)(0)#8
       + 909988 X_(V0)(2)(0)#9 + 590466 X_(V0)(3)(0)#10
       + 955112 X_(V0)(4)(0)#11 + 302162 X_(V1)(1)(0)#12
       + 909988 X_(V1)(2)(0)#13 + 590466 X_(V1)(3)(0)#14
       + 955112 X_(V1)(4)(0)#15 + 1232872 X_(V0)(1)(2)#18
       + 1232872 X_(V1)(1)(2)#19 + 906054 X_(V0)(1)(3)#20
       + 906054 X_(V1)(1)(3)#21 + 1204868 X_(V0)(1)(4)#22
       + 1204868 X_(V1)(1)(4)#23 + 1204670 X_(V0)(2)(1)#24
       + 1204670 X_(V1)(2)(1)#25 + 927804 X_(V0)(2)(3)#28
       + 927804 X_(V1)(2)(3)#29 + 1719208 X_(V0)(2)(4)#30
       + 1719208 X_(V1)(2)(4)#31 + 905536 X_(V0)(3)(1)#32
       + 905536 X_(V1)(3)(1)#33 + 922604 X_(V0)(3)(2)#34
       + 922604 X_(V1)(3)(2)#35 + 781600 X_(V0)(3)(4)#38
       + 781600 X_(V1)(3)(4)#39 + 1201186 X_(V0)(4)(1)#40
       + 1201186 X_(V1)(4)(1)#41 + 1704678 X_(V0)(4)(2)#42
       + 1704678 X_(V1)(4)(2)#43 + 777144 X_(V0)(4)(3)#44
       + 777144 X_(V1)(4)(3)#45
Subject To
 _Entrada_#0:                    X_(V0)(0)(1)#0 + X_(V0)(0)(2)#1
                                 + X_(V0)(0)(3)#2 + X_(V0)(0)(4)#3
                                 + X_(V1)(0)(1)#4 + X_(V1)(0)(2)#5
                                 + X_(V1)(0)(3)#6 + X_(V1)(0)(4)#7  = 2
 Voltar_a_Entrada#1:             X_(V0)(1)(0)#8 + X_(V0)(2)(0)#9
                                 + X_(V0)(3)(0)#10 + X_(V0)(4)(0)#11
                                 + X_(V1)(1)(0)#12 + X_(V1)(2)(0)#13
                                 + X_(V1)(3)(0)#14 + X_(V1)(4)(0)#15  = 2
 _Entradas_node1#2:              X_(V0)(1)(1)#16 + X_(V1)(1)(1)#17
                                 + X_(V0)(1)(2)#18 + X_(V1)(1)(2)#19
                                 + X_(V0)(1)(3)#20 + X_(V1)(1)(3)#21
                                 + X_(V0)(1)(4)#22 + X_(V1)(1)(4)#23  = 1
 _Entradas_node2#3:              X_(V0)(2)(1)#24 + X_(V1)(2)(1)#25
                                 + X_(V0)(2)(2)#26 + X_(V1)(2)(2)#27
                                 + X_(V0)(2)(3)#28 + X_(V1)(2)(3)#29
                                 + X_(V0)(2)(4)#30 + X_(V1)(2)(4)#31  = 1
 _Entradas_node3#4:              X_(V0)(3)(1)#32 + X_(V1)(3)(1)#33
                                 + X_(V0)(3)(2)#34 + X_(V1)(3)(2)#35
                                 + X_(V0)(3)(3)#36 + X_(V1)(3)(3)#37
                                 + X_(V0)(3)(4)#38 + X_(V1)(3)(4)#39  = 1
 _Entradas_node4#5:              X_(V0)(4)(1)#40 + X_(V1)(4)(1)#41
                                 + X_(V0)(4)(2)#42 + X_(V1)(4)(2)#43
                                 + X_(V0)(4)(3)#44 + X_(V1)(4)(3)#45
                                 + X_(V0)(4)(4)#46 + X_(V1)(4)(4)#47  = 1
 Passar_por_0_apenas_uma_vez_viajante_g0#6: X_(V0)(0)(1)#0 + X_(V0)(0)(2)#1
                                 + X_(V0)(0)(3)#2 + X_(V0)(0)(4)#3
                                 + X_(V0)(0)(0)#48  = 1
 Passar_por_0_apenas_uma_vez_viajante_g1#7: X_(V1)(0)(1)#4 + X_(V1)(0)(2)#5
                                 + X_(V1)(0)(3)#6 + X_(V1)(0)(4)#7
                                 + X_(V1)(0)(0)#49  = 1
 Saidas_node1#8:                 X_(V0)(1)(1)#16 + X_(V1)(1)(1)#17
                                 + X_(V0)(2)(1)#24 + X_(V1)(2)(1)#25
                                 + X_(V0)(3)(1)#32 + X_(V1)(3)(1)#33
                                 + X_(V0)(4)(1)#40 + X_(V1)(4)(1)#41  = 1
 Saidas_node2#9:                 X_(V0)(1)(2)#18 + X_(V1)(1)(2)#19
                                 + X_(V0)(2)(2)#26 + X_(V1)(2)(2)#27
                                 + X_(V0)(3)(2)#34 + X_(V1)(3)(2)#35
                                 + X_(V0)(4)(2)#42 + X_(V1)(4)(2)#43  = 1
 Saidas_node3#10:                X_(V0)(1)(3)#20 + X_(V1)(1)(3)#21
                                 + X_(V0)(2)(3)#28 + X_(V1)(2)(3)#29
                                 + X_(V0)(3)(3)#36 + X_(V1)(3)(3)#37
                                 + X_(V0)(4)(3)#44 + X_(V1)(4)(3)#45  = 1
 Saidas_node4#11:                X_(V0)(1)(4)#22 + X_(V1)(1)(4)#23
                                 + X_(V0)(2)(4)#30 + X_(V1)(2)(4)#31
                                 + X_(V0)(3)(4)#38 + X_(V1)(3)(4)#39
                                 + X_(V0)(4)(4)#46 + X_(V1)(4)(4)#47  = 1
 c13#12:                         X_(V0)(1)(1)#16 + X_(V1)(1)(1)#17
                                 + X_(V0)(2)(2)#26 + X_(V1)(2)(2)#27
                                 + X_(V0)(3)(3)#36 + X_(V1)(3)(3)#37
                                 + X_(V0)(4)(4)#46 + X_(V1)(4)(4)#47
                                 + X_(V0)(0)(0)#48 + X_(V1)(0)(0)#49 <= 0
 q1:  [ X_(V0)(0)(1)#0 * X_(V0)(1)(0)#8 ] <= 0
 q2:  [ X_(V1)(0)(1)#4 * X_(V1)(1)(0)#12 ] <= 0
 q3:  [ X_(V0)(0)(2)#1 * X_(V0)(2)(0)#9 ] <= 0
 q4:  [ X_(V1)(0)(2)#5 * X_(V1)(2)(0)#13 ] <= 0
 q5:  [ X_(V0)(0)(3)#2 * X_(V0)(3)(0)#10 ] <= 0
 q6:  [ X_(V1)(0)(3)#6 * X_(V1)(3)(0)#14 ] <= 0
 q7:  [ X_(V0)(0)(4)#3 * X_(V0)(4)(0)#11 ] <= 0
 q8:  [ X_(V1)(0)(4)#7 * X_(V1)(4)(0)#15 ] <= 0
 q9:  [ X_(V0)(1)(1)#16 ^2 ] <= 0
 q10: [ X_(V1)(1)(1)#17 ^2 ] <= 0
 q11: [ X_(V0)(1)(2)#18 * X_(V0)(2)(1)#24 ] <= 0
 q12: [ X_(V1)(1)(2)#19 * X_(V1)(2)(1)#25 ] <= 0
 q13: [ X_(V0)(1)(3)#20 * X_(V0)(3)(1)#32 ] <= 0
 q14: [ X_(V1)(1)(3)#21 * X_(V1)(3)(1)#33 ] <= 0
 q15: [ X_(V0)(1)(4)#22 * X_(V0)(4)(1)#40 ] <= 0
 q16: [ X_(V1)(1)(4)#23 * X_(V1)(4)(1)#41 ] <= 0
 q17: [ X_(V0)(1)(2)#18 * X_(V0)(2)(1)#24 ] <= 0
 q18: [ X_(V1)(1)(2)#19 * X_(V1)(2)(1)#25 ] <= 0
 q19: [ X_(V0)(2)(2)#26 ^2 ] <= 0
 q20: [ X_(V1)(2)(2)#27 ^2 ] <= 0
 q21: [ X_(V0)(2)(3)#28 * X_(V0)(3)(2)#34 ] <= 0
 q22: [ X_(V1)(2)(3)#29 * X_(V1)(3)(2)#35 ] <= 0
 q23: [ X_(V0)(2)(4)#30 * X_(V0)(4)(2)#42 ] <= 0
 q24: [ X_(V1)(2)(4)#31 * X_(V1)(4)(2)#43 ] <= 0
 q25: [ X_(V0)(1)(3)#20 * X_(V0)(3)(1)#32 ] <= 0
 q26: [ X_(V1)(1)(3)#21 * X_(V1)(3)(1)#33 ] <= 0
 q27: [ X_(V0)(2)(3)#28 * X_(V0)(3)(2)#34 ] <= 0
 q28: [ X_(V1)(2)(3)#29 * X_(V1)(3)(2)#35 ] <= 0
 q29: [ X_(V0)(3)(3)#36 ^2 ] <= 0
 q30: [ X_(V1)(3)(3)#37 ^2 ] <= 0
 q31: [ X_(V0)(3)(4)#38 * X_(V0)(4)(3)#44 ] <= 0
 q32: [ X_(V1)(3)(4)#39 * X_(V1)(4)(3)#45 ] <= 0
 q33: [ X_(V0)(1)(4)#22 * X_(V0)(4)(1)#40 ] <= 0
 q34: [ X_(V1)(1)(4)#23 * X_(V1)(4)(1)#41 ] <= 0
 q35: [ X_(V0)(2)(4)#30 * X_(V0)(4)(2)#42 ] <= 0
 q36: [ X_(V1)(2)(4)#31 * X_(V1)(4)(2)#43 ] <= 0
 q37: [ X_(V0)(3)(4)#38 * X_(V0)(4)(3)#44 ] <= 0
 q38: [ X_(V1)(3)(4)#39 * X_(V1)(4)(3)#45 ] <= 0
 q39: [ X_(V0)(4)(4)#46 ^2 ] <= 0
 q40: [ X_(V1)(4)(4)#47 ^2 ] <= 0
Bounds
 0 <= X_(V0)(0)(1)#0 <= 1
 0 <= X_(V0)(0)(2)#1 <= 1
 0 <= X_(V0)(0)(3)#2 <= 1
 0 <= X_(V0)(0)(4)#3 <= 1
 0 <= X_(V1)(0)(1)#4 <= 1
 0 <= X_(V1)(0)(2)#5 <= 1
 0 <= X_(V1)(0)(3)#6 <= 1
 0 <= X_(V1)(0)(4)#7 <= 1
 0 <= X_(V0)(1)(0)#8 <= 1
 0 <= X_(V0)(2)(0)#9 <= 1
 0 <= X_(V0)(3)(0)#10 <= 1
 0 <= X_(V0)(4)(0)#11 <= 1
 0 <= X_(V1)(1)(0)#12 <= 1
 0 <= X_(V1)(2)(0)#13 <= 1
 0 <= X_(V1)(3)(0)#14 <= 1
 0 <= X_(V1)(4)(0)#15 <= 1
 0 <= X_(V0)(1)(1)#16 <= 1
 0 <= X_(V1)(1)(1)#17 <= 1
 0 <= X_(V0)(1)(2)#18 <= 1
 0 <= X_(V1)(1)(2)#19 <= 1
 0 <= X_(V0)(1)(3)#20 <= 1
 0 <= X_(V1)(1)(3)#21 <= 1
 0 <= X_(V0)(1)(4)#22 <= 1
 0 <= X_(V1)(1)(4)#23 <= 1
 0 <= X_(V0)(2)(1)#24 <= 1
 0 <= X_(V1)(2)(1)#25 <= 1
 0 <= X_(V0)(2)(2)#26 <= 1
 0 <= X_(V1)(2)(2)#27 <= 1
 0 <= X_(V0)(2)(3)#28 <= 1
 0 <= X_(V1)(2)(3)#29 <= 1
 0 <= X_(V0)(2)(4)#30 <= 1
 0 <= X_(V1)(2)(4)#31 <= 1
 0 <= X_(V0)(3)(1)#32 <= 1
 0 <= X_(V1)(3)(1)#33 <= 1
 0 <= X_(V0)(3)(2)#34 <= 1
 0 <= X_(V1)(3)(2)#35 <= 1
 0 <= X_(V0)(3)(3)#36 <= 1
 0 <= X_(V1)(3)(3)#37 <= 1
 0 <= X_(V0)(3)(4)#38 <= 1
 0 <= X_(V1)(3)(4)#39 <= 1
 0 <= X_(V0)(4)(1)#40 <= 1
 0 <= X_(V1)(4)(1)#41 <= 1
 0 <= X_(V0)(4)(2)#42 <= 1
 0 <= X_(V1)(4)(2)#43 <= 1
 0 <= X_(V0)(4)(3)#44 <= 1
 0 <= X_(V1)(4)(3)#45 <= 1
 0 <= X_(V0)(4)(4)#46 <= 1
 0 <= X_(V1)(4)(4)#47 <= 1
 0 <= X_(V0)(0)(0)#48 <= 1
 0 <= X_(V1)(0)(0)#49 <= 1
Binaries
 X_(V0)(0)(1)#0  X_(V0)(0)(2)#1  X_(V0)(0)(3)#2  X_(V0)(0)(4)#3 
 X_(V1)(0)(1)#4  X_(V1)(0)(2)#5  X_(V1)(0)(3)#6  X_(V1)(0)(4)#7 
 X_(V0)(1)(0)#8  X_(V0)(2)(0)#9  X_(V0)(3)(0)#10  X_(V0)(4)(0)#11 
 X_(V1)(1)(0)#12  X_(V1)(2)(0)#13  X_(V1)(3)(0)#14  X_(V1)(4)(0)#15 
 X_(V0)(1)(1)#16  X_(V1)(1)(1)#17  X_(V0)(1)(2)#18  X_(V1)(1)(2)#19 
 X_(V0)(1)(3)#20  X_(V1)(1)(3)#21  X_(V0)(1)(4)#22  X_(V1)(1)(4)#23 
 X_(V0)(2)(1)#24  X_(V1)(2)(1)#25  X_(V0)(2)(2)#26  X_(V1)(2)(2)#27 
 X_(V0)(2)(3)#28  X_(V1)(2)(3)#29  X_(V0)(2)(4)#30  X_(V1)(2)(4)#31 
 X_(V0)(3)(1)#32  X_(V1)(3)(1)#33  X_(V0)(3)(2)#34  X_(V1)(3)(2)#35 
 X_(V0)(3)(3)#36  X_(V1)(3)(3)#37  X_(V0)(3)(4)#38  X_(V1)(3)(4)#39 
 X_(V0)(4)(1)#40  X_(V1)(4)(1)#41  X_(V0)(4)(2)#42  X_(V1)(4)(2)#43 
 X_(V0)(4)(3)#44  X_(V1)(4)(3)#45  X_(V0)(4)(4)#46  X_(V1)(4)(4)#47 
 X_(V0)(0)(0)#48  X_(V1)(0)(0)#49 
End
